; benchmark generated from python API
(set-info :status unknown)
(declare-fun S_4 () Real)
(declare-fun S_5 () Real)
(declare-fun C () Real)
(declare-fun S_2 () Real)
(declare-fun S_0 () Real)
(declare-fun S_1 () Real)
(declare-fun A_2 () Real)
(declare-fun L_1 () Real)
(declare-fun A_0 () Real)
(declare-fun L_0 () Real)
(declare-fun L0 () Real)
(declare-fun A_1 () Real)
(declare-fun S_3 () Real)
(declare-fun A_3 () Real)
(declare-fun A_4 () Real)
(declare-fun A_5 () Real)
(assert
 (let (($x42 (>= L0 0.0)))
 (let (($x700 (>= C 5.0)))
 (let (($x11103 (<= (+ (* 3.0 C) A_1 (* (- 1.0) L_0) (* (- 1.0) S_5)) 0.0)))
 (let (($x11089 (<= 0.0 (+ L_1 C (* (- 1.0) A_1) S_0))))
 (let (($x11108 (<= (+ (* 2.0 C) A_1 (* (- 1.0) L_0) (* (- 1.0) S_4)) 0.0)))
 (let (($x10884 (<= (+ (* 3.0 C) (* (- 1.0) S_4) S_0) 0.0)))
 (let (($x10598 (<= 0.0 (+ L_1 (* (- 1.0) C) (* (- 1.0) A_1) S_5))))
 (let (($x15961 (or (<= (+ (* 2.0 C) (* (- 1.0) S_3) S_0) 0.0) (<= (+ C A_1 (* (- 1.0) L_0) (* (- 1.0) S_3)) 0.0))))
 (let (($x10910 (<= (+ C (* (- 1.0) S_2) S_0) 0.0)))
 (let (($x143 (>= S_5 S_4)))
 (let (($x41 (>= L_0 L0)))
 (let (($x131 (>= S_1 S_0)))
 (let (($x134 (>= S_2 S_1)))
 (let (($x137 (>= S_3 S_2)))
 (let (($x140 (>= S_4 S_3)))
 (let (($x145 (>= A_1 A_0)))
 (let (($x147 (>= A_3 A_2)))
 (let (($x148 (>= A_4 A_3)))
 (let (($x149 (>= A_5 A_4)))
 (and (<= (+ A_1 (* (- 1.0) L_1)) S_5) $x149 $x148 $x147 $x145 $x140 $x137 $x134 $x131 $x41 $x143 (<= (+ (* (- 2.0) C) S_3 (* (- 1.0) S_2)) 0.0) (<= (+ (* (- 3.0) C) S_5 (* (- 1.0) S_3)) 0.0) (<= (+ (* (- 1.0) A_1) L_0 S_1) 0.0) (<= (+ L_0 (* (- 1.0) C) (* (- 1.0) A_0) S_1) 0.0) (<= (+ (* (- 3.0) C) (* (- 1.0) A_1) L_0 S_4) 0.0) (<= (+ (* (- 5.0) C) S_4 (* (- 1.0) S_0)) 0.0) (<= (+ (* (- 4.0) C) L_0 S_4 (* (- 1.0) A_0)) 0.0) (<= (+ C (* (- 1.0) S_5) S_3) 0.0) (<= (+ (* (- 4.0) C) S_3 (* (- 1.0) S_0)) 0.0) (<= (+ L_1 (* (- 2.0) C) (* (- 1.0) A_1) S_3) 0.0) (or (= L_1 L_0) (not (<= 0.0 (+ (* (- 1.0) L_1) L_0)))) (<= (+ (* (- 4.0) C) S_4 (* (- 1.0) S_1)) 0.0) (or $x10598 $x10910) (<= (+ (* (- 3.0) C) L_0 S_3 (* (- 1.0) A_0)) 0.0) (<= (+ (* (- 3.0) C) S_3 (* (- 1.0) S_1)) 0.0) (<= (+ L_0 (* (- 2.0) C) S_2 (* (- 1.0) A_0)) 0.0) (<= (+ (* (- 2.0) C) S_2 (* (- 1.0) S_1)) 0.0) (<= (+ (* (- 3.0) C) S_2 (* (- 1.0) S_0)) 0.0) (<= (+ (* (- 3.0) C) S_4 (* (- 1.0) S_2)) 0.0) (<= (+ C (* (- 1.0) S_3) S_1) 0.0) (or (<= (+ A_1 (* (- 1.0) L_0) (* (- 1.0) S_2)) 0.0) $x10910) (<= (+ (* (- 6.0) C) S_5 (* (- 1.0) S_0)) 0.0) (<= (+ (* (- 4.0) C) S_5 (* (- 1.0) S_2)) 0.0) (<= (+ L_0 (* (- 5.0) C) S_5 (* (- 1.0) A_0)) 0.0) (<= (+ (* (- 5.0) C) S_5 (* (- 1.0) S_1)) 0.0) (<= (+ (* 3.0 C) (* (- 1.0) S_5) S_1) 0.0) (<= (+ (* (- 2.0) C) (* (- 1.0) S_3) S_4) 0.0) $x15961 (<= (+ (* (- 1.0) C) (* (- 1.0) A_1) L_0 S_2) 0.0) (<= (+ (* 2.0 C) (* (- 1.0) S_4) S_1) 0.0) (<= (+ (* 2.0 C) (* (- 1.0) S_5) S_2) 0.0) (or (= L_1 L_0) (not $x10598)) (<= (+ (* (- 4.0) C) (* (- 1.0) A_1) L_0 S_5) 0.0) (or $x10598 $x10884) (or $x10884 $x11108) (or (<= (+ (* 4.0 C) (* (- 1.0) S_5) S_0) 0.0) $x11089) (or (not $x11089) $x11103) $x700 $x42 (<= (+ L_0 (* (- 1.0) A_0) S_0) 0.0) (not (>= (+ L_1 (* (- 1.0) A_2) S_5) 0.0)) (<= (+ (* (- 2.0) C) S_1 (* (- 1.0) S_0)) 0.0) (<= (+ C (* (- 1.0) S_4) S_2) 0.0) (<= (+ (* (- 2.0) C) S_5 (* (- 1.0) S_4)) 0.0))))))))))))))))))))))
(check-sat)
